(set-logic QF_LIA)
(declare-fun x0 () Int)
(declare-fun x1 () Int)
(declare-fun x2 () Int)
(declare-fun x3 () Int)
(declare-fun x4 () Int)
(declare-fun x5 () Int)
(declare-fun x6 () Int)
(declare-fun x7 () Int)
(declare-fun x8 () Int)
(declare-fun x9 () Int)
(declare-fun A0 () Bool)
(declare-fun A1 () Bool)
(declare-fun A2 () Bool)
(declare-fun A3 () Bool)
(declare-fun A4 () Bool)
(declare-fun A5 () Bool)
(declare-fun A6 () Bool)
(declare-fun A7 () Bool)
(declare-fun A8 () Bool)
(declare-fun A9 () Bool)
(assert (let ((.def_0 (not A4))) (let ((.def_1 (* (- 1) x1))) (let ((.def_2 (< .def_1 (- 1)))) (let ((.def_3 (not .def_2))) (let ((.def_4 (and .def_3 .def_0))) (let ((.def_5 (not .def_4))) (let ((.def_6 (* (- 1) x4))) (let ((.def_7 (* (- 1) x7))) (let ((.def_8 (+ .def_7 .def_6))) (let ((.def_9 (< .def_8 (- 1)))) (let ((.def_10 (not .def_9))) (let ((.def_11 (not A2))) (let ((.def_12 (= .def_11 .def_10))) (let ((.def_13 (not .def_12))) (let ((.def_14 (or .def_13 .def_5))) (let ((.def_15 (not .def_14))) (let ((.def_16 (* 1 x4))) (let ((.def_17 (* (- 1) x2))) (let ((.def_18 (+ .def_17 .def_16))) (let ((.def_19 (< .def_18 1))) (let ((.def_20 (not .def_19))) (let ((.def_21 (not A5))) (let ((.def_22 (= .def_21 .def_20))) (let ((.def_23 (not A7))) (let ((.def_24 (* 1 x9))) (let ((.def_25 (* 1 x0))) (let ((.def_26 (+ .def_25 .def_24))) (let ((.def_27 (< .def_26 (- 1)))) (let ((.def_28 (or .def_27 .def_23))) (let ((.def_29 (not .def_28))) (let ((.def_30 (or .def_29 .def_22))) (let ((.def_31 (and .def_30 .def_15))) (let ((.def_32 (not .def_31))) (let ((.def_33 (or A6 A0))) (let ((.def_34 (not .def_33))) (let ((.def_35 (not A8))) (let ((.def_36 (* 1 x7))) (let ((.def_37 (< .def_36 1))) (let ((.def_38 (and .def_37 .def_35))) (let ((.def_39 (and .def_38 .def_34))) (let ((.def_40 (not A3))) (let ((.def_41 (* (- 1) x0))) (let ((.def_42 (* (- 1) x9))) (let ((.def_43 (+ .def_42 .def_41))) (let ((.def_44 (< .def_43 1))) (let ((.def_45 (and .def_44 .def_40))) (let ((.def_46 (* 1 x2))) (let ((.def_47 (+ .def_24 .def_46))) (let ((.def_48 (< .def_47 1))) (let ((.def_49 (= .def_23 .def_48))) (let ((.def_50 (and .def_49 .def_45))) (let ((.def_51 (= .def_50 .def_39))) (let ((.def_52 (not .def_51))) (let ((.def_53 (and .def_52 .def_32))) (let ((.def_54 (* 1 x5))) (let ((.def_55 (< .def_54 (- 1)))) (let ((.def_56 (* (- 1) x6))) (let ((.def_57 (+ .def_1 .def_56))) (let ((.def_58 (< .def_57 1))) (let ((.def_59 (not .def_58))) (let ((.def_60 (and .def_59 .def_55))) (let ((.def_61 (not .def_60))) (let ((.def_62 (and A1 .def_40))) (let ((.def_63 (and .def_62 .def_61))) (let ((.def_64 (or A3 .def_21))) (let ((.def_65 (not A9))) (let ((.def_66 (or .def_65 .def_21))) (let ((.def_67 (or .def_66 .def_64))) (let ((.def_68 (not .def_67))) (let ((.def_69 (and .def_68 .def_63))) (let ((.def_70 (not A0))) (let ((.def_71 (or .def_70 .def_21))) (let ((.def_72 (* (- 1) x3))) (let ((.def_73 (+ .def_46 .def_72))) (let ((.def_74 (< .def_73 (- 1)))) (let ((.def_75 (+ .def_24 .def_72))) (let ((.def_76 (< .def_75 1))) (let ((.def_77 (not .def_76))) (let ((.def_78 (or .def_77 .def_74))) (let ((.def_79 (not .def_78))) (let ((.def_80 (or .def_79 .def_71))) (let ((.def_81 (not .def_80))) (let ((.def_82 (* 1 x1))) (let ((.def_83 (< .def_82 1))) (let ((.def_84 (* 1 x6))) (let ((.def_85 (< .def_84 1))) (let ((.def_86 (not .def_85))) (let ((.def_87 (or .def_86 .def_83))) (let ((.def_88 (not .def_87))) (let ((.def_89 (* 1 x3))) (let ((.def_90 (+ .def_89 .def_36))) (let ((.def_91 (< .def_90 (- 1)))) (let ((.def_92 (or .def_91 A3))) (let ((.def_93 (not .def_92))) (let ((.def_94 (and .def_93 .def_88))) (let ((.def_95 (and .def_94 .def_81))) (let ((.def_96 (not .def_95))) (let ((.def_97 (and .def_96 .def_69))) (let ((.def_98 (not .def_97))) (let ((.def_99 (and .def_98 .def_53))) (let ((.def_100 (not .def_99))) (let ((.def_101 (<= x9 1))) (let ((.def_102 (<= 0 x9))) (let ((.def_103 (<= x8 1))) (let ((.def_104 (<= 0 x8))) (let ((.def_105 (<= x7 1))) (let ((.def_106 (<= 0 x7))) (let ((.def_107 (<= x6 1))) (let ((.def_108 (<= 0 x6))) (let ((.def_109 (<= x5 1))) (let ((.def_110 (<= 0 x5))) (let ((.def_111 (<= x4 1))) (let ((.def_112 (<= 0 x4))) (let ((.def_113 (<= x3 1))) (let ((.def_114 (<= 0 x3))) (let ((.def_115 (<= x2 1))) (let ((.def_116 (<= 0 x2))) (let ((.def_117 (<= x1 1))) (let ((.def_118 (<= 0 x1))) (let ((.def_119 (<= x0 1))) (let ((.def_120 (<= 0 x0))) (let ((.def_121 (and .def_120 .def_119 .def_118 .def_117 .def_116 .def_115 .def_114 .def_113 .def_112 .def_111 .def_110 .def_109 .def_108 .def_107 .def_106 .def_105 .def_104 .def_103 .def_102 .def_101 .def_100))) .def_121)))))))))))))))))))))))))))))))))))))))))))))))))))))))))))))))))))))))))))))))))))))))))))))))))))))))))))))))))))))))))))
(check-sat)
